EVRP-TW-SPD dataset generation/evrptwspd_instances/small_instances/Cplex10er/c205C10.txt
StringID	Type	x	y	Delivery	Pickup	ReadyTime	DueDate	ServiceTime
D0	d	40.0	50.0	0.0	0.0	0.0	3390.0	0.0
S0	f	40.0	50.0	0.0	0.0	0.0	3390.0	0.0
S3	f	57.0	82.0	0.0	0.0	0.0	3390.0	0.0
S15	f	39.0	26.0	0.0	0.0	0.0	3390.0	0.0
C8	c	34.0	60.0	11.333333333333332	8.666666666666668	12.0	332.0	90.0
C9	c	28.0	70.0	4.0	6.0	138.0	458.0	90.0
C47	c	30.0	35.0	8.571428571428571	1.4285714285714288	227.0	547.0	90.0
C60	c	35.0	5.0	2.8571428571428568	17.142857142857142	1312.0	1632.0	90.0
C94	c	65.0	82.0	7.926829268292684	2.0731707317073162	429.0	749.0	90.0
C75	c	45.0	65.0	13.846153846153847	6.153846153846153	1099.0	1419.0	90.0
C66	c	47.0	35.0	7.446808510638298	2.5531914893617023	2633.0	2953.0	90.0
C99	c	55.0	80.0	6.875	3.125	810.0	1130.0	90.0
C56	c	40.0	5.0	3.75	26.25	1497.0	1817.0	90.0
C15	c	20.0	80.0	10.0	30.0	331.0	651.0	90.0

Q Vehicle fuel tank capacity /77.75/
C Vehicle load capacity /700.0/
r fuel consumption rate /1.0/
g inverse refueling rate /3.47/
v average Velocity /1.0/
